TCS_Benchmarks/redos_fix/regexlib2_output_distinct_504_503_1_0.smt2
(set-logic QF_S)
(declare-const x String)
(assert (str.in.re x (re.inter  (re.++ (re.* (re.union (re.range "\u{00}" "\u{09}") (re.range "\u{0b}" "\u{0c}") (re.range "\u{0e}" "\u{84}") (re.range "\u{86}" "\u{ff}")) )  (re.++  (re.union  (str.to.re "\u{2d}") (re.union (re.range "\u{30}" "\u{39}") (re.union (re.range "\u{41}" "\u{5a}") (re.range "\u{61}" "\u{7a}")))) (re.++  (re.union  (str.to.re "\u{2d}") (re.union (re.range "\u{30}" "\u{39}") (re.union (re.range "\u{41}" "\u{5a}") (re.range "\u{61}" "\u{7a}")))) (re.++  (re.union  (str.to.re "\u{2d}") (re.union (re.range "\u{30}" "\u{39}") (re.union (re.range "\u{41}" "\u{5a}") (re.range "\u{61}" "\u{7a}")))) (re.++  (re.union  (str.to.re "\u{2d}") (re.union (re.range "\u{30}" "\u{39}") (re.union (re.range "\u{41}" "\u{5a}") (re.range "\u{61}" "\u{7a}")))) (re.++  (re.union  (str.to.re "\u{2d}") (re.union (re.range "\u{30}" "\u{39}") (re.union (re.range "\u{41}" "\u{5a}") (re.range "\u{61}" "\u{7a}")))) (re.++  (re.union  (str.to.re "\u{2d}") (re.union (re.range "\u{30}" "\u{39}") (re.union (re.range "\u{41}" "\u{5a}") (re.range "\u{61}" "\u{7a}")))) (re.++  (re.union  (str.to.re "\u{2d}") (re.union (re.range "\u{30}" "\u{39}") (re.union (re.range "\u{41}" "\u{5a}") (re.range "\u{61}" "\u{7a}"))))  (re.union  (str.to.re "\u{2d}") (re.union (re.range "\u{30}" "\u{39}") (re.union (re.range "\u{41}" "\u{5a}") (re.range "\u{61}" "\u{7a}"))))))))))))  (re.++ (re.* (re.union (re.range "\u{00}" "\u{09}") (re.range "\u{0b}" "\u{0c}") (re.range "\u{0e}" "\u{84}") (re.range "\u{86}" "\u{ff}")) ) (re.++  (re.++  (re.union  (str.to.re "\u{3f}")  (str.to.re "\u{26}")) (re.++  (re.union  (re.++ (re.opt  (re.++  (str.to.re "\u{66}") (re.++  (str.to.re "\u{6f}") (re.++  (str.to.re "\u{6c}") (re.++  (str.to.re "\u{64}") (re.++  (str.to.re "\u{65}") (re.++  (str.to.re "\u{72}")  (str.to.re "\u{69}"))))))) )  (str.to.re "\u{64}"))  (str.to.re "\u{66}"))  (str.to.re "\u{3d}")))  (re.++  (re.union  (str.to.re "\u{2d}") (re.union (re.range "\u{30}" "\u{39}") (re.union (re.range "\u{41}" "\u{5a}") (re.range "\u{61}" "\u{7a}")))) (re.++  (re.union  (str.to.re "\u{2d}") (re.union (re.range "\u{30}" "\u{39}") (re.union (re.range "\u{41}" "\u{5a}") (re.range "\u{61}" "\u{7a}")))) (re.++  (re.union  (str.to.re "\u{2d}") (re.union (re.range "\u{30}" "\u{39}") (re.union (re.range "\u{41}" "\u{5a}") (re.range "\u{61}" "\u{7a}")))) (re.++  (re.union  (str.to.re "\u{2d}") (re.union (re.range "\u{30}" "\u{39}") (re.union (re.range "\u{41}" "\u{5a}") (re.range "\u{61}" "\u{7a}")))) (re.++  (re.union  (str.to.re "\u{2d}") (re.union (re.range "\u{30}" "\u{39}") (re.union (re.range "\u{41}" "\u{5a}") (re.range "\u{61}" "\u{7a}")))) (re.++  (re.union  (str.to.re "\u{2d}") (re.union (re.range "\u{30}" "\u{39}") (re.union (re.range "\u{41}" "\u{5a}") (re.range "\u{61}" "\u{7a}")))) (re.++  (re.union  (str.to.re "\u{2d}") (re.union (re.range "\u{30}" "\u{39}") (re.union (re.range "\u{41}" "\u{5a}") (re.range "\u{61}" "\u{7a}"))))  (re.union  (str.to.re "\u{2d}") (re.union (re.range "\u{30}" "\u{39}") (re.union (re.range "\u{41}" "\u{5a}") (re.range "\u{61}" "\u{7a}"))))))))))))) )))
(check-sat)
(get-model)