TCS_Benchmarks/redos_fix/regexlib2_output_distinct_504_503_1_0.txt
(.*)([\-0-9A-Za-z]{8})
(.*)((\?|&)((folderi)?d|f)=)([\-0-9A-Za-z]{8})